benchmarks/norm/eucliddiv/eucliddiv_norm_inv2_len2_3.smt2
;--------------------------------------------------------------------------
; Benchmark created with Zazu
; Benchmark: 		eucliddiv_norm_inv2_len2_3
; Created:   		2022-01-05 21:35
; Generator of the ideal: 
; 		 -y00 + y
; 		 r - r00 - q00*y00 + q*y00
; Testing invariant: -q*y^2*y00 - q^3*r00*y^2 + q^4*y^2*y00 + q00*y^2*y00 - q^3*q00*y^2*y00 + q^3*r*y^2 - r*y^2 + r00*y^2
;--------------------------------------------------------------------------

(set-logic NIA)
(set-option :produce-proofs true)

(declare-const q00 Int)
(declare-const r00 Int)
(declare-const y00 Int)

(assert 
	(exists
		((q Int) (r Int) (y Int))
		(and
			(= (+ (* (- 1) y00) y) 0)
			(= (+ (- r r00 (* q00 y00)) (* q y00)) 0)

			(or
				(not (= (+ (- (+ (- (+ (- (* (- 1) (+ q 1) y00 y00 y00) (* (+ q 1) (+ q 1) (+ q 1) r00 y00 y00)) (* (+ q 1) (+ q 1) (+ q 1) (+ q 1) y00 y00 y00) (* q00 y00 y00 y00)) (* (+ q 1) (+ q 1) (+ q 1) q00 y00 y00 y00)) (* (+ q 1) (+ q 1) (+ q 1) (- r y00) y00 y00)) (* (- r y00) y00 y00)) (* r00 y00 y00)) 0))
			)
		)
	)
)
(check-sat)
(get-proof)
(exit)
